[TITLE]


[JUNCTIONS]
;ID              	Elev        	Demand      	Pattern         
 1               	78.64       	0           	punta           	;
 2               	77.55       	0           	punta           	;
 3               	76.55       	0           	punta           	;
 4               	75.66       	0.121520    	punta           	;
 5               	75.25       	0           	punta           	;
 6               	75.52       	0           	punta           	;
 7               	77          	0           	punta           	;
 8               	74.2        	0.13888     	punta           	;
 9               	74.5        	0.03472     	punta           	;
 10              	75          	0.03472     	punta           	;
 11              	76          	0.034720    	punta           	;
 12              	75.8        	0.041664    	punta           	;
 13              	75.64       	0           	punta           	;
 14              	75.2        	0           	punta           	;
 15              	74.8        	0.052080    	punta           	;
 16              	74.2        	0.138880    	punta           	;
 17              	73.8        	0.086800    	punta           	;
 18              	73.65       	0.069440    	punta           	;
 19              	73.5        	0.017360    	punta           	;
 20              	73.14       	0           	punta           	;
 21              	72.36       	0.086800    	punta           	;
 22              	72.36       	0.034720    	punta           	;
 23              	70.8        	0.024304    	punta           	;
 24              	70.9        	0.041664    	punta           	;
 25              	72.4        	0.138880    	punta           	;
 26              	72.56       	0.104160    	punta           	;
 27              	73.4        	0.086800    	punta           	;
 28              	70          	0.059024    	punta           	;
 29              	71.6        	0.13880     	punta           	;
 30              	71.2        	0.156240    	punta           	;
 31              	69          	0.260400    	punta           	;
 32              	66.5        	0.260400    	punta           	;
 33              	67.5        	0.052080    	punta           	;
 34              	68          	0.086800    	punta           	;
 35              	69.8        	0.093744    	punta           	;
 36              	64.23       	0.347200    	punta           	;
 37              	70          	0.097216    	punta           	;
 38              	69.6        	0.138880    	punta           	;
 39              	68.56       	0.104160    	punta           	;
 40              	69          	0.104160    	punta           	;
 41              	68          	0.104160    	punta           	;
 42              	68          	0.086800    	punta           	;
 43              	65.9        	0.243040    	punta           	;
 44              	66.5        	0.243040    	punta           	;
 45              	67          	0.138880    	punta           	;
 46              	67.62       	0.156240    	punta           	;
 47              	71          	0.34720     	punta           	;
 48              	71.8        	0           	punta           	;
 49              	70          	0.173600    	punta           	;
 50              	69          	0.034720    	punta           	;
 51              	70.8        	0.173600    	punta           	;
 52              	69.5        	0.173600    	punta           	;
 53              	71.5        	0.347200    	punta           	;
 54              	72.2        	0           	punta           	;
 55              	68.4        	0.173600    	punta           	;
 56              	67.8        	0.347200    	punta           	;
 57              	68.6        	0.416640    	punta           	;
 58              	69.74       	0           	punta           	;
 59              	69          	0           	punta           	;
 60              	68.8        	0           	punta           	;
 61              	68.28       	0.06944     	punta           	;
 62              	67.68       	0.138880    	punta           	;
 63              	67          	0.173600    	punta           	;
 64              	68          	0.173600    	punta           	;
 65              	69          	0.243040    	punta           	;
 66              	68.9        	0.208320    	punta           	;
 67              	66.7        	0.173600    	punta           	;
 68              	66.6        	0.086800    	punta           	;
 69              	65.86       	0.034720    	punta           	;
 70              	64.5        	0.121520    	punta           	;
 71              	64.2        	0.121520    	punta           	;
 72              	64.5        	0.173600    	punta           	;
 73              	64          	0.086800    	punta           	;
 74              	64.5        	0.173600    	punta           	;
 75              	64.5        	0.208320    	punta           	;
 76              	65.5        	0.173600    	punta           	;
 77              	63.8        	0.017360    	punta           	;
 78              	63.8        	0.034720    	punta           	;
 79              	63.6        	0.017360    	punta           	;
 80              	63.8        	0.069440    	punta           	;
 81              	63.6        	0.017360    	punta           	;
 82              	63.8        	0.069440    	punta           	;
 83              	64          	0.034720    	punta           	;
 84              	62.34       	0.173600    	punta           	;
 85              	62.51       	0.017360    	punta           	;
 86              	63.6        	0.104160    	punta           	;
 87              	62.24       	0.069440    	punta           	;
 88              	65.5        	0.253456    	punta           	;
 89              	63          	0.173600    	punta           	;
 90              	62.6        	0.104160    	punta           	;
 91              	62.38       	0.104160    	punta           	;
 92              	64          	0.208320    	punta           	;
 93              	63.2        	0.243040    	punta           	;
 94              	62.8        	0.381920    	punta           	;
 95              	62.2        	0.312480    	punta           	;
 96              	62          	0.381920    	punta           	;
 97              	61          	0.312480    	punta           	;
 98              	61          	0.208320    	punta           	;
 99              	64.4        	0.381920    	punta           	;
 100             	64.7        	0.416640    	punta           	;
 101             	65          	0.381920    	punta           	;
 102             	68          	0.173600    	punta           	;
 103             	68          	0.173600    	punta           	;
 104             	69          	0.138880    	punta           	;
 105             	59.2        	0.277760    	punta           	;
 106             	59.2        	0.277760    	punta           	;
 107             	60          	0.173600    	punta           	;
 108             	60          	0.173600    	punta           	;
 109             	59.5        	0           	punta           	;
 110             	59.2        	0.451360    	punta           	;
 111             	59          	0.451360    	punta           	;
 112             	58.60       	0.399280    	punta           	;
 113             	58.2        	0.190960    	punta           	;
 114             	58          	0.121520    	punta           	;
 115             	58.4        	0.364560    	punta           	;
 116             	58.2        	0.312480    	punta           	;
 117             	58          	0.208320    	punta           	;
 118             	57.60       	0.347200    	punta           	;
 119             	57.50       	0.312480    	punta           	;
 120             	57.6        	0.312480    	punta           	;
 121             	57          	0.312480    	punta           	;
 122             	57.8        	0.416640    	punta           	;
 123             	57.6        	0.399280    	punta           	;
 124             	63          	0.399280    	punta           	;
 125             	61          	0.347200    	punta           	;
 126             	61          	0.434000    	punta           	;
 127             	60.8        	0.520800    	punta           	;
 128             	57.18       	0.399280    	punta           	;
 129             	60          	0.277760    	punta           	;
 130             	57.6        	0.319424    	punta           	;
 131             	58          	0.336784    	punta           	;
 132             	58          	0.347200    	punta           	;
 133             	58.5        	0.277760    	punta           	;
 134             	59          	0.312480    	punta           	;
 135             	58          	0.277760    	punta           	;
 136             	57.5        	0.347200    	punta           	;
 137             	57          	0.312480    	punta           	;
 138             	56.5        	0.381920    	punta           	;
 139             	56          	0.381920    	punta           	;
 140             	55.3        	0.364560    	punta           	;
 141             	55.5        	0.312480    	punta           	;
 142             	56.3        	0.277760    	punta           	;
 143             	55          	0.381920    	punta           	;
 144             	54          	0           	punta           	;
 145             	54.3        	0.329840    	punta           	;
 146             	55.38       	0.364560    	punta           	;
 147             	54          	0.416640    	punta           	;
 148             	55          	0.347200    	punta           	;
 149             	55.8        	0.381920    	punta           	;
 150             	53.14       	0.381920    	punta           	;
 151             	55.2        	0.381920    	punta           	;
 152             	54.3        	0           	punta           	;
 153             	60.62       	0           	punta           	;
 154             	55          	0           	punta           	;
 155             	60.8        	0.121520    	punta           	;
 156             	61          	0.156240    	punta           	;
 157             	60.30       	0.121520    	punta           	;
 158             	61          	0.295120    	punta           	;
 159             	59.6        	0.138880    	punta           	;
 160             	61.3        	0.381920    	punta           	;
 161             	61.5        	0.416640    	punta           	;
 162             	61.7        	0.295120    	punta           	;
 163             	61.8        	0.260400    	punta           	;
 164             	62.38       	0.156240    	punta           	;
 165             	58.8        	0.156240    	punta           	;
 166             	59          	0.225680    	punta           	;
 167             	58          	0.086800    	punta           	;
 168             	58.8        	0.190960    	punta           	;
 169             	59          	0.295120    	punta           	;
 170             	59          	0.225680    	punta           	;
 171             	58.8        	0.260400    	punta           	;
 172             	54          	0.329840    	punta           	;
 173             	54.8        	0.381920    	punta           	;
 174             	54.56       	0.416640    	punta           	;
 175             	57          	0.451360    	punta           	;
 176             	56.5        	0.381920    	punta           	;
 177             	56          	0.486080    	punta           	;
 178             	55.5        	0.416640    	punta           	;
 179             	55.5        	0.38192     	punta           	;
 180             	56          	0.27776     	punta           	;
 181             	56          	0.31248     	punta           	;
 182             	56.5        	0.31248     	punta           	;

[RESERVOIRS]
;ID              	Head        	Pattern         
 183             	110         	                	;
 184             	110         	                	;

[TANKS]
;ID              	Elevation   	InitLevel   	MinLevel    	MaxLevel    	Diameter    	MinVol      	VolCurve

[PIPES]
;ID              	Node1           	Node2           	Length      	Diameter    	Roughness   	MinorLoss   	Status
 1               	183             	1               	97          	200         	0.85        	0           	Open  	;
 2               	1               	2               	76.3        	200         	0.85        	0           	Open  	;
 3               	2               	3               	77.8        	200         	0.85        	0           	Open  	;
 4               	3               	4               	193.8       	200         	0.85        	0           	Open  	;
 5               	1               	7               	231.8       	60          	0.85        	0           	Open  	;
 6               	2               	6               	183         	60          	0.85        	0           	Open  	;
 7               	3               	5               	134         	60          	0.85        	0           	Open  	;
 8               	7               	6               	62          	60          	0.85        	0           	Open  	;
 9               	6               	5               	53.1        	60          	0.85        	0           	Open  	;
 10              	5               	4               	159.6       	60          	0.85        	0           	Open  	;
 11              	7               	11              	176.2       	60          	0.85        	0           	Open  	;
 12              	6               	10              	173         	60          	0.85        	0           	Open  	;
 13              	5               	9               	167.4       	60          	0.85        	0           	Open  	;
 14              	4               	8               	223.4       	200         	0.85        	0           	Open  	;
 15              	4               	8               	274.2       	60          	0.85        	0           	Open  	;
 16              	11              	12              	106.6       	200         	0.85        	0           	Open  	;
 17              	12              	13              	138.2       	60          	0.85        	0           	Open  	;
 18              	13              	14              	138         	60          	0.85        	0           	Open  	;
 19              	8               	9               	48.4        	200         	0.85        	0           	Open  	;
 20              	9               	10              	59.6        	200         	0.85        	0           	Open  	;
 21              	10              	11              	63.4        	200         	0.85        	0           	Open  	;
 22              	12              	15              	39.8        	200         	0.85        	0           	Open  	;
 23              	15              	16              	62.8        	200         	0.85        	0           	Open  	;
 24              	16              	17              	55.8        	200         	0.85        	0           	Open  	;
 25              	17              	18              	93.6        	200         	0.85        	0           	Open  	;
 26              	18              	19              	51.8        	200         	0.85        	0           	Open  	;
 27              	19              	20              	114.8       	200         	0.85        	0           	Open  	;
 28              	14              	20              	162.4       	60          	0.85        	0           	Open  	;
 29              	13              	19              	160         	60          	0.85        	0           	Open  	;
 30              	19              	22              	47.6        	60          	0.85        	0           	Open  	;
 31              	22              	23              	84          	60          	0.85        	0           	Open  	;
 32              	18              	21              	47.6        	60          	0.85        	0           	Open  	;
 33              	21              	24              	84          	60          	0.85        	0           	Open  	;
 34              	22              	21              	51.8        	60          	0.85        	0           	Open  	;
 35              	23              	24              	51          	60          	0.85        	0           	Open  	;
 36              	8               	27              	43.6        	200         	0.85        	0           	Open  	;
 37              	27              	26              	79.6        	200         	0.85        	0           	Open  	;
 38              	26              	25              	67.8        	200         	0.85        	0           	Open  	;
 39              	17              	25              	164.8       	60          	0.85        	0           	Open  	;
 40              	16              	26              	203.6       	60          	0.85        	0           	Open  	;
 41              	15              	27              	249.8       	60          	0.85        	0           	Open  	;
 42              	23              	28              	82.4        	60          	0.85        	0           	Open  	;
 43              	25              	29              	119.8       	200         	0.85        	0           	Open  	;
 44              	29              	30              	110         	200         	0.85        	0           	Open  	;
 45              	21              	29              	202.4       	60          	0.85        	0           	Open  	;
 46              	30              	24              	139         	200         	0.85        	0           	Open  	;
 47              	30              	31              	192         	200         	0.85        	0           	Open  	;
 48              	24              	31              	208         	60          	0.85        	0           	Open  	;
 49              	31              	32              	74.2        	200         	0.85        	0           	Open  	;
 50              	34              	33              	56          	200         	0.85        	0           	Open  	;
 51              	33              	32              	42          	200         	0.85        	0           	Open  	;
 52              	23              	33              	232.4       	60          	0.85        	0           	Open  	;
 53              	28              	34              	192.2       	60          	0.85        	0           	Open  	;
 54              	20              	35              	260         	200         	0.85        	0           	Open  	;
 55              	35              	34              	74.4        	200         	0.85        	0           	Open  	;
 56              	32              	36              	232.6       	200         	0.85        	0           	Open  	;
 57              	35              	36              	303         	60          	0.85        	0           	Open  	;
 58              	35              	37              	65.8        	200         	0.85        	0           	Open  	;
 59              	37              	38              	107.4       	200         	0.85        	0           	Open  	;
 60              	38              	39              	148.4       	60          	0.85        	0           	Open  	;
 61              	39              	40              	226.8       	60          	0.85        	0           	Open  	;
 62              	39              	41              	53.4        	60          	0.85        	0           	Open  	;
 63              	41              	42              	231.8       	60          	0.85        	0           	Open  	;
 64              	40              	42              	55.6        	60          	0.85        	0           	Open  	;
 65              	41              	43              	110         	60          	0.85        	0           	Open  	;
 66              	36              	43              	70          	200         	0.85        	0           	Open  	;
 67              	42              	46              	125         	60          	0.85        	0           	Open  	;
 68              	43              	44              	104         	200         	0.85        	0           	Open  	;
 69              	44              	45              	67          	200         	0.85        	0           	Open  	;
 70              	45              	46              	92          	200         	0.85        	0           	Open  	;
 71              	38              	47              	93.8        	60          	0.85        	0           	Open  	;
 72              	47              	48              	80.16       	60          	0.85        	0           	Open  	;
 73              	38              	50              	81.8        	200         	0.85        	0           	Open  	;
 74              	50              	40              	82          	200         	0.85        	0           	Open  	;
 75              	47              	51              	79.6        	60          	0.85        	0           	Open  	;
 76              	51              	49              	67.8        	60          	0.85        	0           	Open  	;
 77              	49              	50              	45.6        	60          	0.85        	0           	Open  	;
 78              	48              	54              	205.6       	60          	0.85        	0           	Open  	;
 79              	54              	53              	82.5        	60          	0.85        	0           	Open  	;
 80              	51              	53              	126.8       	60          	0.85        	0           	Open  	;
 81              	53              	52              	65.8        	60          	0.85        	0           	Open  	;
 82              	49              	52              	129.2       	60          	0.85        	0           	Open  	;
 83              	53              	55              	179.8       	60          	0.85        	0           	Open  	;
 84              	40              	57              	217.6       	200         	0.85        	0           	Open  	;
 85              	57              	56              	59.2        	60          	0.85        	0           	Open  	;
 86              	56              	55              	64          	60          	0.85        	0           	Open  	;
 87              	52              	56              	152         	60          	0.85        	0           	Open  	;
 88              	55              	58              	60          	60          	0.85        	0           	Open  	;
 89              	58              	59              	128.6       	60          	0.85        	0           	Open  	;
 90              	59              	60              	174.2       	60          	0.85        	0           	Open  	;
 91              	57              	61              	206.4       	200         	0.85        	0           	Open  	;
 92              	61              	59              	194         	60          	0.85        	0           	Open  	;
 93              	61              	62              	113.6       	200         	0.85        	0           	Open  	;
 94              	62              	63              	80.6        	200         	0.85        	0           	Open  	;
 95              	64              	63              	208         	200         	0.85        	0           	Open  	;
 96              	64              	62              	208.4       	200         	0.85        	0           	Open  	;
 97              	46              	66              	73.6        	200         	0.85        	0           	Open  	;
 98              	66              	65              	55.6        	200         	0.85        	0           	Open  	;
 99              	65              	64              	60.4        	200         	0.85        	0           	Open  	;
 100             	60              	68              	403         	60          	0.85        	0           	Open  	;
 101             	63              	67              	50          	200         	0.85        	0           	Open  	;
 102             	67              	68              	48.6        	200         	0.85        	0           	Open  	;
 103             	68              	69              	176         	150         	0.85        	0           	Open  	;
 104             	67              	70              	153         	60          	0.85        	0           	Open  	;
 105             	68              	70              	174.2       	60          	0.85        	0           	Open  	;
 106             	70              	71              	66          	60          	0.85        	0           	Open  	;
 107             	63              	71              	150.6       	60          	0.85        	0           	Open  	;
 108             	71              	73              	50          	60          	0.85        	0           	Open  	;
 109             	73              	72              	50.2        	60          	0.85        	0           	Open  	;
 110             	72              	74              	53.4        	60          	0.85        	0           	Open  	;
 111             	74              	75              	54          	60          	0.85        	0           	Open  	;
 112             	64              	72              	145.4       	60          	0.85        	0           	Open  	;
 113             	65              	74              	144.2       	60          	0.85        	0           	Open  	;
 114             	66              	75              	153.8       	60          	0.85        	0           	Open  	;
 115             	75              	76              	89.2        	60          	0.85        	0           	Open  	;
 116             	46              	76              	237.8       	100         	0.85        	0           	Open  	;
 117             	70              	77              	92          	60          	0.85        	0           	Open  	;
 118             	73              	78              	77.2        	60          	0.85        	0           	Open  	;
 119             	77              	78              	226         	60          	0.85        	0           	Open  	;
 120             	77              	79              	31.8        	60          	0.85        	0           	Open  	;
 121             	78              	80              	31.8        	60          	0.85        	0           	Open  	;
 122             	79              	80              	220         	60          	0.85        	0           	Open  	;
 123             	79              	81              	22.4        	60          	0.85        	0           	Open  	;
 124             	80              	82              	18.4        	60          	0.85        	0           	Open  	;
 125             	83              	81              	123.6       	60          	0.85        	0           	Open  	;
 126             	82              	83              	96.2        	60          	0.85        	0           	Open  	;
 127             	82              	86              	60.8        	60          	0.85        	0           	Open  	;
 128             	83              	85              	118.4       	60          	0.85        	0           	Open  	;
 129             	81              	84              	165.8       	60          	0.85        	0           	Open  	;
 130             	84              	87              	120         	60          	0.85        	0           	Open  	;
 131             	85              	87              	43          	60          	0.85        	0           	Open  	;
 132             	69              	84              	542         	110         	0.85        	0           	Open  	;
 133             	76              	88              	63.2        	60          	0.85        	0           	Open  	;
 134             	88              	89              	102.6       	60          	0.85        	0           	Open  	;
 135             	89              	90              	65          	60          	0.85        	0           	Open  	;
 136             	90              	91              	45          	60          	0.85        	0           	Open  	;
 137             	86              	89              	152.8       	60          	0.85        	0           	Open  	;
 138             	85              	90              	220         	60          	0.85        	0           	Open  	;
 139             	87              	91              	221.4       	60          	0.85        	0           	Open  	;
 140             	76              	92              	92          	100         	0.85        	0           	Open  	;
 141             	92              	93              	68.4        	100         	0.85        	0           	Open  	;
 142             	45              	92              	259.6       	60          	0.85        	0           	Open  	;
 143             	44              	93              	265.4       	60          	0.85        	0           	Open  	;
 144             	93              	94              	59.2        	100         	0.85        	0           	Open  	;
 145             	94              	95              	140         	100         	0.85        	0           	Open  	;
 146             	95              	96              	91.6        	100         	0.85        	0           	Open  	;
 147             	36              	96              	450         	125         	0.85        	0           	Open  	;
 148             	96              	97              	94          	150         	0.85        	0           	Open  	;
 149             	97              	98              	52          	150         	0.85        	0           	Open  	;
 150             	36              	98              	460.2       	150         	0.85        	0           	Open  	;
 151             	102             	101             	261         	60          	0.85        	0           	Open  	;
 152             	101             	100             	122         	200         	0.85        	0           	Open  	;
 153             	100             	99              	122         	200         	0.85        	0           	Open  	;
 154             	99              	36              	122         	200         	0.85        	0           	Open  	;
 155             	102             	103             	53.4        	60          	0.85        	0           	Open  	;
 156             	103             	101             	212.2       	200         	0.85        	0           	Open  	;
 157             	104             	102             	118.4       	60          	0.85        	0           	Open  	;
 158             	104             	103             	150.2       	200         	0.85        	0           	Open  	;
 159             	8               	104             	465.2       	200         	0.85        	0           	Open  	;
 160             	96              	105             	150         	150         	0.85        	0           	Open  	;
 161             	105             	106             	30.4        	150         	0.85        	0           	Open  	;
 162             	98              	107             	29.4        	150         	0.85        	0           	Open  	;
 163             	107             	108             	56.6        	150         	0.85        	0           	Open  	;
 164             	108             	109             	167.6       	150         	0.85        	0           	Open  	;
 165             	106             	110             	58.8        	60          	0.85        	0           	Open  	;
 166             	110             	111             	64.2        	60          	0.85        	0           	Open  	;
 167             	111             	112             	57.2        	60          	0.85        	0           	Open  	;
 168             	97              	110             	164         	60          	0.85        	0           	Open  	;
 169             	107             	111             	154.6       	60          	0.85        	0           	Open  	;
 170             	108             	112             	157.4       	60          	0.85        	0           	Open  	;
 171             	112             	113             	47          	60          	0.85        	0           	Open  	;
 172             	111             	115             	75          	60          	0.85        	0           	Open  	;
 173             	112             	116             	72.6        	60          	0.85        	0           	Open  	;
 174             	113             	114             	67.2        	60          	0.85        	0           	Open  	;
 175             	115             	116             	58          	60          	0.85        	0           	Open  	;
 176             	116             	114             	47          	60          	0.85        	0           	Open  	;
 177             	114             	117             	140.5       	60          	0.85        	0           	Open  	;
 178             	109             	117             	246.4       	150         	0.85        	0           	Open  	;
 179             	115             	118             	50.8        	60          	0.85        	0           	Open  	;
 180             	114             	119             	50.6        	60          	0.85        	0           	Open  	;
 181             	119             	118             	106.2       	60          	0.85        	0           	Open  	;
 182             	118             	120             	28.8        	60          	0.85        	0           	Open  	;
 183             	119             	121             	76.4        	60          	0.85        	0           	Open  	;
 184             	120             	121             	126         	60          	0.85        	0           	Open  	;
 185             	106             	122             	161         	150         	0.85        	0           	Open  	;
 186             	122             	123             	20.2        	150         	0.85        	0           	Open  	;
 187             	122             	118             	47.8        	60          	0.85        	0           	Open  	;
 188             	123             	120             	37.2        	60          	0.85        	0           	Open  	;
 189             	76              	124             	80.2        	100         	0.85        	0           	Open  	;
 190             	124             	125             	151.8       	100         	0.85        	0           	Open  	;
 191             	125             	126             	28.8        	100         	0.85        	0           	Open  	;
 192             	126             	127             	77.4        	100         	0.85        	0           	Open  	;
 193             	127             	128             	124.74      	100         	0.85        	0           	Open  	;
 194             	95              	128             	61.2        	100         	0.85        	0           	Open  	;
 195             	126             	129             	114         	150         	0.85        	0           	Open  	;
 196             	128             	130             	119.2       	100         	0.85        	0           	Open  	;
 197             	129             	130             	198.4       	60          	0.85        	0           	Open  	;
 198             	129             	134             	48          	150         	0.85        	0           	Open  	;
 199             	130             	131             	39.3        	100         	0.85        	0           	Open  	;
 200             	105             	131             	142.2       	150         	0.85        	0           	Open  	;
 201             	131             	132             	25.8        	150         	0.85        	0           	Open  	;
 202             	132             	133             	103         	150         	0.85        	0           	Open  	;
 203             	133             	134             	79.4        	150         	0.85        	0           	Open  	;
 204             	134             	135             	61.2        	150         	0.85        	0           	Open  	;
 205             	133             	136             	56          	60          	0.85        	0           	Open  	;
 206             	135             	136             	77          	60          	0.85        	0           	Open  	;
 207             	135             	137             	45.6        	150         	0.85        	0           	Open  	;
 208             	136             	138             	48.6        	60          	0.85        	0           	Open  	;
 209             	137             	138             	73.6        	60          	0.85        	0           	Open  	;
 210             	132             	139             	109.6       	60          	0.85        	0           	Open  	;
 211             	138             	139             	106.8       	60          	0.85        	0           	Open  	;
 212             	139             	140             	25.2        	60          	0.85        	0           	Open  	;
 213             	138             	141             	30          	60          	0.85        	0           	Open  	;
 214             	137             	142             	50          	150         	0.85        	0           	Open  	;
 215             	142             	141             	86.6        	60          	0.85        	0           	Open  	;
 216             	141             	140             	110         	60          	0.85        	0           	Open  	;
 217             	140             	143             	106         	60          	0.85        	0           	Open  	;
 218             	143             	123             	138         	60          	0.85        	0           	Open  	;
 219             	142             	144             	212.2       	150         	0.85        	0           	Open  	;
 220             	144             	145             	204.6       	80          	0.85        	0           	Open  	;
 221             	140             	146             	116.6       	60          	0.85        	0           	Open  	;
 222             	146             	145             	120.6       	60          	0.85        	0           	Open  	;
 223             	145             	150             	51          	80          	0.85        	0           	Open  	;
 224             	150             	147             	88          	80          	0.85        	0           	Open  	;
 225             	146             	151             	46.8        	60          	0.85        	0           	Open  	;
 226             	148             	147             	109.6       	60          	0.85        	0           	Open  	;
 227             	149             	148             	58.4        	60          	0.85        	0           	Open  	;
 228             	143             	149             	49          	60          	0.85        	0           	Open  	;
 229             	151             	148             	71          	60          	0.85        	0           	Open  	;
 230             	152             	144             	71.8        	80          	0.85        	0           	Open  	;
 231             	153             	154             	496         	60          	0.85        	0           	Open  	;
 232             	154             	152             	328.2       	80          	0.85        	0           	Open  	;
 233             	84              	155             	113.8       	110         	0.85        	0           	Open  	;
 234             	155             	153             	25.8        	100         	0.85        	0           	Open  	;
 235             	156             	155             	50          	100         	0.85        	0           	Open  	;
 236             	155             	157             	71.8        	80          	0.85        	0           	Open  	;
 237             	156             	157             	72.4        	60          	0.85        	0           	Open  	;
 238             	158             	156             	42.6        	100         	0.85        	0           	Open  	;
 239             	157             	159             	72          	80          	0.85        	0           	Open  	;
 240             	158             	159             	137.2       	60          	0.85        	0           	Open  	;
 241             	159             	152             	410.8       	80          	0.85        	0           	Open  	;
 242             	160             	158             	90.6        	100         	0.85        	0           	Open  	;
 243             	161             	160             	62.4        	100         	0.85        	0           	Open  	;
 244             	162             	161             	97.6        	100         	0.85        	0           	Open  	;
 245             	125             	163             	28.8        	100         	0.85        	0           	Open  	;
 246             	163             	162             	10.4        	100         	0.85        	0           	Open  	;
 247             	163             	164             	69.2        	60          	0.85        	0           	Open  	;
 248             	91              	164             	27          	60          	0.85        	0           	Open  	;
 249             	164             	155             	241         	60          	0.85        	0           	Open  	;
 250             	165             	159             	104.4       	60          	0.85        	0           	Open  	;
 251             	160             	166             	114.2       	60          	0.85        	0           	Open  	;
 252             	166             	165             	31          	60          	0.85        	0           	Open  	;
 253             	165             	167             	53.2        	60          	0.85        	0           	Open  	;
 254             	167             	135             	183.8       	60          	0.85        	0           	Open  	;
 255             	166             	168             	66.8        	60          	0.85        	0           	Open  	;
 256             	168             	169             	55.2        	60          	0.85        	0           	Open  	;
 257             	169             	161             	114.2       	60          	0.85        	0           	Open  	;
 258             	162             	170             	78.8        	60          	0.85        	0           	Open  	;
 259             	170             	171             	48.6        	60          	0.85        	0           	Open  	;
 260             	171             	168             	86          	60          	0.85        	0           	Open  	;
 261             	170             	169             	90.4        	60          	0.85        	0           	Open  	;
 262             	147             	172             	60.4        	80          	0.85        	0           	Open  	;
 263             	172             	173             	133.8       	80          	0.85        	0           	Open  	;
 264             	172             	174             	194.8       	60          	0.85        	0           	Open  	;
 265             	173             	174             	50          	100         	0.85        	0           	Open  	;
 266             	123             	175             	49          	100         	0.85        	0           	Open  	;
 267             	175             	176             	35.4        	100         	0.85        	0           	Open  	;
 268             	175             	149             	150.4       	60          	0.85        	0           	Open  	;
 269             	176             	148             	170.4       	60          	0.85        	0           	Open  	;
 270             	176             	177             	47.4        	100         	0.85        	0           	Open  	;
 271             	177             	178             	24.4        	100         	0.85        	0           	Open  	;
 272             	178             	173             	48          	100         	0.85        	0           	Open  	;
 273             	179             	173             	161.2       	150         	0.85        	0           	Open  	;
 274             	180             	179             	43.6        	150         	0.85        	0           	Open  	;
 275             	117             	180             	200         	150         	0.85        	0           	Open  	;
 276             	121             	182             	61.6        	60          	0.85        	0           	Open  	;
 277             	182             	181             	45.8        	60          	0.85        	0           	Open  	;
 278             	181             	179             	43.2        	60          	0.85        	0           	Open  	;
 279             	181             	178             	176.8       	60          	0.85        	0           	Open  	;
 280             	182             	177             	144.8       	60          	0.85        	0           	Open  	;
 281             	121             	176             	105.8       	60          	0.85        	0           	Open  	;
 282             	184             	180             	150         	200         	0.85        	0           	Open  	;

[PUMPS]
;ID              	Node1           	Node2           	Parameters

[VALVES]
;ID              	Node1           	Node2           	Diameter    	Type	Setting     	MinorLoss   

[TAGS]

[DEMANDS]
;Junction        	Demand      	Pattern         	Category

[STATUS]
;ID              	Status/Setting

[PATTERNS]
;ID              	Multipliers
;punta
 punta           	3           	3           	3           	3           	3           	3           
 punta           	3           	3           	3           	3           	3           	3           
 punta           	3           	3           	3           	3           	3           	3           
 punta           	3           	3           	3           	3           	3           	3           

[CURVES]
;ID              	X-Value     	Y-Value

[CONTROLS]






[RULES]






[ENERGY]
 Global Efficiency  	75
 Global Price       	0
 Demand Charge      	0

[EMITTERS]
;Junction        	Coefficient

[QUALITY]
;Node            	InitQual

[SOURCES]
;Node            	Type        	Quality     	Pattern

[REACTIONS]
;Type     	Pipe/Tank       	Coefficient


[REACTIONS]
 Order Bulk            	1
 Order Tank            	1
 Order Wall            	1
 Global Bulk           	0
 Global Wall           	0
 Limiting Potential    	0
 Roughness Correlation 	0

[MIXING]
;Tank            	Model

[TIMES]
 Duration           	24:00 
 Hydraulic Timestep 	1:00 
 Quality Timestep   	0:05 
 Pattern Timestep   	1:00 
 Pattern Start      	0:00 
 Report Timestep    	1:00 
 Report Start       	0:00 
 Start ClockTime    	12 am
 Statistic          	NONE

[REPORT]
 Status             	No
 Summary            	No
 Page               	0

[OPTIONS]
 Units              	LPS
 Headloss           	D-W
 Specific Gravity   	1
 Viscosity          	1
 Trials             	40
 Accuracy           	0.001
 CHECKFREQ          	2
 MAXCHECK           	10
 DAMPLIMIT          	0
 Unbalanced         	Continue 10
 Pattern            	punta
 Demand Multiplier  	1
 Emitter Exponent   	0.5
 Quality            	None mg/L
 Diffusivity        	1
 Tolerance          	0.01

[COORDINATES]
;Node            	X-Coord         	Y-Coord
 1               	8561.32         	644.65          
 2               	8718.55         	723.27          
 3               	8875.79         	801.89          
 4               	9127.36         	959.12          
 5               	8891.51         	1006.29         
 6               	8718.55         	990.57          
 7               	8545.60         	990.57          
 8               	9048.74         	1179.25         
 9               	8891.51         	1179.25         
 10              	8718.55         	1179.25         
 11              	8529.87         	1179.25         
 12              	8325.47         	1179.25         
 13              	8089.62         	1179.25         
 14              	7838.05         	1163.52         
 15              	8325.47         	1336.48         
 16              	8325.47         	1477.99         
 17              	8325.47         	1650.94         
 18              	8183.96         	1650.94         
 19              	8042.45         	1650.94         
 20              	7806.60         	1635.22         
 21              	8183.96         	1839.62         
 22              	8026.73         	1839.62         
 23              	8026.73         	2044.03         
 24              	8183.96         	2059.75         
 25              	8860.06         	1650.94         
 26              	8938.68         	1462.26         
 27              	9017.30         	1320.75         
 28              	7885.22         	2059.75         
 29              	8608.49         	1996.86         
 30              	8466.98         	2264.15         
 31              	8325.47         	2594.34         
 32              	8199.69         	2830.19         
 33              	8042.45         	2751.57         
 34              	7885.22         	2672.96         
 35              	7712.26         	2578.62         
 36              	7665.09         	3254.72         
 37              	7523.58         	2594.34         
 38              	7334.91         	2594.34         
 39              	7523.58         	2783.02         
 40              	7051.89         	2735.85         
 41              	7523.58         	2987.42         
 42              	7020.44         	2987.42         
 43              	7507.86         	3254.72         
 44              	7350.63         	3254.72         
 45              	7193.40         	3254.72         
 46              	6988.99         	3254.72         
 47              	7334.91         	2295.60         
 48              	7334.91         	2091.19         
 49              	7161.95         	2468.55         
 50              	7161.95         	2625.79         
 51              	7161.95         	2295.60         
 52              	6894.65         	2468.55         
 53              	6894.65         	2295.60         
 54              	6910.38         	2075.47         
 55              	6548.74         	2311.32         
 56              	6643.08         	2468.55         
 57              	6753.14         	2657.23         
 58              	6438.68         	2059.75         
 59              	6250.00         	2059.75         
 60              	6045.60         	2044.03         
 61              	6297.17         	2641.51         
 62              	6297.17         	3003.14         
 63              	6297.17         	3223.27         
 64              	6564.47         	3223.27         
 65              	6705.97         	3238.99         
 66              	6831.76         	3238.99         
 67              	6108.49         	3223.27         
 68              	5919.81         	3223.27         
 69              	5621.07         	3223.27         
 70              	6108.49         	3490.57         
 71              	6297.17         	3490.57         
 72              	6548.74         	3506.29         
 73              	6422.96         	3490.57         
 74              	6690.25         	3506.29         
 75              	6831.76         	3506.29         
 76              	6973.27         	3710.69         
 77              	6108.49         	3679.25         
 78              	6422.96         	3679.25         
 79              	6108.49         	3836.48         
 80              	6422.96         	3836.48         
 81              	6045.60         	3993.71         
 82              	6422.96         	3993.71         
 83              	6250.00         	4009.43         
 84              	5982.70         	4355.35         
 85              	6234.28         	4261.01         
 86              	6375.79         	4150.94         
 87              	6234.28         	4371.07         
 88              	6768.87         	3710.69         
 89              	6768.87         	4135.22         
 90              	6768.87         	4292.45         
 91              	6768.87         	4433.96         
 92              	7161.95         	3710.69         
 93              	7319.18         	3710.69         
 94              	7460.69         	3710.69         
 95              	7429.25         	4166.67         
 96              	7617.92         	4166.67         
 97              	7838.05         	4166.67         
 98              	7995.28         	4166.67         
 99              	7885.22         	3254.72         
 100             	8089.62         	3254.72         
 101             	8294.03         	3254.72         
 102             	8891.51         	2515.72         
 103             	8687.11         	2500.00         
 104             	8954.40         	2295.60         
 105             	7696.54         	4795.60         
 106             	7743.71         	5000.00         
 107             	8215.41         	4166.67         
 108             	8451.26         	4166.67         
 109             	8797.17         	4166.67         
 110             	7932.39         	5000.00         
 111             	8168.24         	5000.00         
 112             	8388.36         	5000.00         
 113             	8545.60         	5000.00         
 114             	8545.60         	5235.85         
 115             	8183.96         	5235.85         
 116             	8372.64         	5235.85         
 117             	8954.40         	5235.85         
 118             	8183.96         	5393.08         
 119             	8529.87         	5408.81         
 120             	8183.96         	5550.31         
 121             	8529.87         	5676.10         
 122             	7885.22         	5393.08         
 123             	7963.84         	5550.31         
 124             	6973.27         	3930.82         
 125             	6973.27         	4544.03         
 126             	7114.78         	4544.03         
 127             	7256.29         	4544.03         
 128             	7429.25         	4528.30         
 129             	7114.78         	4716.98         
 130             	7429.25         	4685.53         
 131             	7507.86         	4858.49         
 132             	7350.63         	4889.94         
 133             	7224.84         	4889.94         
 134             	7051.89         	4905.66         
 135             	7065.61         	5230.96         
 136             	7224.84         	5235.85         
 137             	7083.33         	5455.97         
 138             	7224.84         	5455.97         
 139             	7397.80         	5440.25         
 140             	7460.69         	5628.93         
 141             	7256.29         	5660.38         
 142             	7083.33         	5754.72         
 143             	7727.99         	5597.48         
 144             	7067.61         	6540.88         
 145             	7539.31         	6493.71         
 146             	7507.86         	6084.91         
 147             	7900.94         	6430.82         
 148             	7822.33         	6037.74         
 149             	7759.43         	5817.61         
 150             	7727.99         	6477.99         
 151             	7665.09         	6053.46         
 152             	6863.21         	6540.88         
 153             	5841.19         	4654.09         
 154             	5841.19         	6525.16         
 155             	6075.96         	4651.91         
 156             	6218.55         	4654.09         
 157             	6202.83         	4889.94         
 158             	6375.79         	4654.09         
 159             	6344.34         	5141.51         
 160             	6548.74         	4654.09         
 161             	6721.70         	4654.09         
 162             	6863.21         	4654.09         
 163             	6847.48         	4544.03         
 164             	6705.97         	4544.03         
 165             	6564.47         	5141.51         
 166             	6564.47         	4968.55         
 167             	6564.47         	5283.02         
 168             	6721.70         	4968.55         
 169             	6721.70         	4827.04         
 170             	6863.21         	4842.77         
 171             	6863.21         	4984.28         
 172             	8089.62         	6399.37         
 173             	8302.40         	6340.45         
 174             	8356.92         	6525.16         
 175             	8026.73         	5754.72         
 176             	8089.62         	5943.40         
 177             	8152.52         	6069.18         
 178             	8215.41         	6210.69         
 179             	8639.94         	6242.14         
 180             	8891.51         	6147.80         
 181             	8624.21         	6084.91         
 182             	8592.77         	5896.23         
 183             	8105.35         	487.42          
 184             	9536.16         	6273.58         

[VERTICES]
;Link            	X-Coord         	Y-Coord
 15              	9190.25         	1069.18         
 15              	9143.08         	1194.97         
 96              	6564.47         	3018.87         
 105             	5951.26         	3380.50         
 132             	5589.62         	3411.95         
 132             	5668.24         	3773.58         
 150             	7869.50         	3757.86         
 151             	8514.15         	3238.99         
 158             	8781.45         	2311.32         
 159             	9237.42         	1383.65         
 159             	9095.91         	1902.52         
 178             	8812.89         	4685.53         
 178             	8954.40         	4764.15         
 215             	7193.40         	5754.72         
 249             	6171.38         	4512.58         
 264             	8152.52         	6556.60         

[LABELS]
;X-Coord           Y-Coord          Label & Anchor Node

[BACKDROP]
 DIMENSIONS     	0.00            	0.00            	10000.00        	10000.00        
 UNITS          	None
 FILE           	
 OFFSET         	0.00            	0.00            

[END]
